;; translated from ./lustre/PRODUCER_CONSUMER_3.vmt
;; original benchmark available at: https://es-static.fbk.eu/people/griggio/ic3ia/index.html
;; author: Alberto Griggio <griggio@fbk.eu>
(set-logic HORN)
(declare-fun state (Int Int Bool Bool Bool Bool Bool Bool Bool Bool Int Int Int Int Int Int Int Int Int Int Int Int Int Int Int Bool Int Int Int Int Int Bool Bool Int Int Int Int Int Int Int Bool Bool Bool) Bool)
(assert (forall ((|call__PRODUCER_CONSUMMER_.xite2__AT0| Int) (|param_etat1__AT0| Bool) (|call__PRODUCER_CONSUMMER_.garde1__AT0| Bool) (|call__PRODUCER_CONSUMMER_.garde2__AT0| Bool) (|call__PRODUCER_CONSUMMER_.garde3__AT0| Bool) (|param_a_init__AT1| Int) (|call__PRODUCER_CONSUMMER_.xite8__AT0| Int) (|call__PRODUCER_CONSUMMER_.xite9__AT0| Int) (|param_etat2__AT0| Bool) (|call__PRODUCER_CONSUMMER_.flby__AT0| Int) (|call__PRODUCER_CONSUMMER_.a__AT0| Int) (|call__PRODUCER_CONSUMMER_.flby2__AT0| Int) (|param_a_init__AT0| Int) (|call__PRODUCER_CONSUMMER_.flby3__AT0| Int) (|call__PRODUCER_CONSUMMER_.flby4__AT0| Int) (|call__PRODUCER_CONSUMMER_.flby5__AT0| Int) (|call_excludes3.excludes__AT0| Bool) (|call_Sofar.flby__AT0| Bool) (|call_FirstB.flby__AT0| Bool) (|call_First.flby__AT0| Int) (|_OK___AT0| Bool) (|env__AT0| Bool) (|i__AT0| Int) (|call__PRODUCER_CONSUMMER_.i__AT0| Int) (|b__AT0| Int) (|call__PRODUCER_CONSUMMER_.b__AT0| Int) (|a__AT0| Int) (|o1__AT0| Int) (|call__PRODUCER_CONSUMMER_.o1__AT0| Int) (|o2__AT0| Int) (|call__PRODUCER_CONSUMMER_.o2__AT0| Int) (|call_Sofar.Sofar__AT0| Bool) (|call_FirstB.First__AT0| Bool) (|call_First.First__AT0| Int) (|call__PRODUCER_CONSUMMER_.xite7__AT0| Int) (|call__PRODUCER_CONSUMMER_.xite6__AT0| Int) (|call__PRODUCER_CONSUMMER_.xite3__AT0| Int) (|call__PRODUCER_CONSUMMER_.xite5__AT0| Int) (|call__PRODUCER_CONSUMMER_.xite4__AT0| Int) (|_OK___AT1| Bool) (|env__AT1| Bool) (|flby__AT1| Bool) (|i__AT1| Int) (|call__PRODUCER_CONSUMMER_.i__AT1| Int) (|b__AT1| Int) (|call__PRODUCER_CONSUMMER_.b__AT1| Int) (|a__AT1| Int) (|call__PRODUCER_CONSUMMER_.a__AT1| Int) (|call__PRODUCER_CONSUMMER_.o1__AT1| Int) (|o1__AT1| Int) (|o2__AT1| Int) (|call__PRODUCER_CONSUMMER_.o2__AT1| Int) (|call_Sofar.Sofar__AT1| Bool) (|call_FirstB.First__AT1| Bool) (|call_First.First__AT1| Int) (|call__PRODUCER_CONSUMMER_.xite6__AT1| Int) (|call__PRODUCER_CONSUMMER_.xite7__AT1| Int) (|param_etat1__AT1| Bool) (|call__PRODUCER_CONSUMMER_.xite3__AT1| Int) (|call__PRODUCER_CONSUMMER_.xite5__AT1| Int) (|param_etat2__AT1| Bool) (|call__PRODUCER_CONSUMMER_.xite4__AT1| Int) (|call__PRODUCER_CONSUMMER_.flby__AT1| Int) (|call__PRODUCER_CONSUMMER_.flby2__AT1| Int) (|call__PRODUCER_CONSUMMER_.flby3__AT1| Int) (|call__PRODUCER_CONSUMMER_.flby4__AT1| Int) (|call__PRODUCER_CONSUMMER_.flby5__AT1| Int) (|param_etat3__AT1| Bool) (|call_excludes3.excludes__AT1| Bool) (|call_Sofar.flby__AT1| Bool) (|call_FirstB.flby__AT1| Bool) (|call_First.flby__AT1| Int) (|call__PRODUCER_CONSUMMER_.xite11__AT1| Int) (|call__PRODUCER_CONSUMMER_.xite9__AT1| Int) (|call__PRODUCER_CONSUMMER_.xite2__AT1| Int) (|call__PRODUCER_CONSUMMER_.garde3__AT1| Bool) (|call__PRODUCER_CONSUMMER_.garde2__AT1| Bool) (|call__PRODUCER_CONSUMMER_.garde1__AT1| Bool) (|call__PRODUCER_CONSUMMER_.xite10__AT1| Int) (|call__PRODUCER_CONSUMMER_.xite8__AT1| Int) (|call__PRODUCER_CONSUMMER_.xite__AT1| Int) (|param_etat3__AT0| Bool) (|call__PRODUCER_CONSUMMER_.xite10__AT0| Int) (|call__PRODUCER_CONSUMMER_.xite11__AT0| Int) (|flby__AT0| Bool) (|call__PRODUCER_CONSUMMER_.xite__AT0| Int)) (=> (let ((.def_124 (not param_etat3__AT0)))
(let ((.def_123 (= call__PRODUCER_CONSUMMER_.xite11__AT0 call__PRODUCER_CONSUMMER_.xite10__AT0)))
(let ((.def_125 (or .def_123 .def_124)))
(let ((.def_126 (and flby__AT0 .def_125)))
(let ((.def_119 (= call__PRODUCER_CONSUMMER_.xite2__AT0 call__PRODUCER_CONSUMMER_.xite__AT0)))
(let ((.def_56 (not param_etat1__AT0)))
(let ((.def_120 (or .def_56 .def_119)))
(let ((.def_127 (and .def_120 .def_126)))
(let ((.def_115 (= call__PRODUCER_CONSUMMER_.xite9__AT0 call__PRODUCER_CONSUMMER_.xite8__AT0)))
(let ((.def_47 (not param_etat2__AT0)))
(let ((.def_116 (or .def_47 .def_115)))
(let ((.def_128 (and .def_116 .def_127)))
(let ((.def_112 (= call__PRODUCER_CONSUMMER_.a__AT0 call__PRODUCER_CONSUMMER_.flby__AT0)))
(let ((.def_129 (and .def_112 .def_128)))
(let ((.def_111 (= call__PRODUCER_CONSUMMER_.flby2__AT0 0)))
(let ((.def_130 (and .def_111 .def_129)))
(let ((.def_110 (= call__PRODUCER_CONSUMMER_.flby3__AT0 param_a_init__AT0)))
(let ((.def_131 (and .def_110 .def_130)))
(let ((.def_109 (= call__PRODUCER_CONSUMMER_.flby4__AT0 0)))
(let ((.def_132 (and .def_109 .def_131)))
(let ((.def_108 (= call__PRODUCER_CONSUMMER_.flby5__AT0 0)))
(let ((.def_133 (and .def_108 .def_132)))
(let ((.def_102 (or param_etat2__AT0 param_etat1__AT0)))
(let ((.def_103 (or param_etat3__AT0 .def_102)))
(let ((.def_104 (not .def_103)))
(let ((.def_106 (or call_excludes3.excludes__AT0 .def_104)))
(let ((.def_107 (= call_Sofar.flby__AT0 .def_106)))
(let ((.def_134 (and .def_107 .def_133)))
(let ((.def_105 (= call_FirstB.flby__AT0 .def_104)))
(let ((.def_135 (and .def_105 .def_134)))
(let ((.def_101 (= call_First.flby__AT0 param_a_init__AT0)))
(let ((.def_136 (and .def_101 .def_135)))
(let ((.def_78 (not env__AT0)))
(let ((.def_80 (or .def_78 flby__AT0)))
(let ((.def_82 (= .def_80 _OK___AT0)))
(let ((.def_77 (= call__PRODUCER_CONSUMMER_.i__AT0 i__AT0)))
(let ((.def_83 (and .def_77 .def_82)))
(let ((.def_75 (= call__PRODUCER_CONSUMMER_.b__AT0 b__AT0)))
(let ((.def_84 (and .def_75 .def_83)))
(let ((.def_73 (= call__PRODUCER_CONSUMMER_.a__AT0 a__AT0)))
(let ((.def_85 (and .def_73 .def_84)))
(let ((.def_71 (= call__PRODUCER_CONSUMMER_.o1__AT0 o1__AT0)))
(let ((.def_86 (and .def_71 .def_85)))
(let ((.def_69 (= call__PRODUCER_CONSUMMER_.o2__AT0 o2__AT0)))
(let ((.def_87 (and .def_69 .def_86)))
(let ((.def_64 (and call_FirstB.First__AT0 call_Sofar.Sofar__AT0)))
(let ((.def_62 (<= call_First.First__AT0 0)))
(let ((.def_63 (not .def_62)))
(let ((.def_65 (and .def_63 .def_64)))
(let ((.def_67 (= .def_65 env__AT0)))
(let ((.def_88 (and .def_67 .def_87)))
(let ((.def_58 (= call__PRODUCER_CONSUMMER_.xite6__AT0 call__PRODUCER_CONSUMMER_.xite7__AT0)))
(let ((.def_59 (or param_etat1__AT0 .def_58)))
(let ((.def_55 (= call__PRODUCER_CONSUMMER_.xite7__AT0 call__PRODUCER_CONSUMMER_.xite3__AT0)))
(let ((.def_57 (or .def_55 .def_56)))
(let ((.def_60 (and .def_57 .def_59)))
(let ((.def_89 (and .def_60 .def_88)))
(let ((.def_50 (= call__PRODUCER_CONSUMMER_.xite6__AT0 call__PRODUCER_CONSUMMER_.xite5__AT0)))
(let ((.def_51 (or param_etat2__AT0 .def_50)))
(let ((.def_46 (= call__PRODUCER_CONSUMMER_.xite6__AT0 call__PRODUCER_CONSUMMER_.xite4__AT0)))
(let ((.def_48 (or .def_46 .def_47)))
(let ((.def_52 (and .def_48 .def_51)))
(let ((.def_90 (and .def_52 .def_89)))
(let ((.def_43 (= call__PRODUCER_CONSUMMER_.flby__AT0 call__PRODUCER_CONSUMMER_.i__AT0)))
(let ((.def_91 (and .def_43 .def_90)))
(let ((.def_40 (= call__PRODUCER_CONSUMMER_.flby2__AT0 call__PRODUCER_CONSUMMER_.b__AT0)))
(let ((.def_92 (and .def_40 .def_91)))
(let ((.def_37 (= call__PRODUCER_CONSUMMER_.flby3__AT0 call__PRODUCER_CONSUMMER_.a__AT0)))
(let ((.def_93 (and .def_37 .def_92)))
(let ((.def_34 (= call__PRODUCER_CONSUMMER_.flby4__AT0 call__PRODUCER_CONSUMMER_.o1__AT0)))
(let ((.def_94 (and .def_34 .def_93)))
(let ((.def_31 (= call__PRODUCER_CONSUMMER_.flby5__AT0 call__PRODUCER_CONSUMMER_.o2__AT0)))
(let ((.def_95 (and .def_31 .def_94)))
(let ((.def_24 (and param_etat2__AT0 param_etat3__AT0)))
(let ((.def_22 (and param_etat1__AT0 param_etat3__AT0)))
(let ((.def_20 (and param_etat2__AT0 param_etat1__AT0)))
(let ((.def_23 (or .def_20 .def_22)))
(let ((.def_25 (or .def_23 .def_24)))
(let ((.def_26 (not .def_25)))
(let ((.def_28 (= .def_26 call_excludes3.excludes__AT0)))
(let ((.def_96 (and .def_28 .def_95)))
(let ((.def_17 (= call_Sofar.flby__AT0 call_Sofar.Sofar__AT0)))
(let ((.def_97 (and .def_17 .def_96)))
(let ((.def_14 (= call_FirstB.flby__AT0 call_FirstB.First__AT0)))
(let ((.def_98 (and .def_14 .def_97)))
(let ((.def_11 (= call_First.flby__AT0 call_First.First__AT0)))
(let ((.def_99 (and .def_11 .def_98)))
(let ((.def_137 (and .def_99 .def_136)))
.def_137)))))))))))))))))))))))))))))))))))))))))))))))))))))))))))))))))))))))))))))))))))))))) (state |call_First.flby__AT0| |call_First.First__AT0| |call_FirstB.flby__AT0| |call_FirstB.First__AT0| |call_Sofar.flby__AT0| |call_Sofar.Sofar__AT0| |param_etat2__AT0| |param_etat1__AT0| |param_etat3__AT0| |call_excludes3.excludes__AT0| |call__PRODUCER_CONSUMMER_.flby5__AT0| |call__PRODUCER_CONSUMMER_.o2__AT0| |call__PRODUCER_CONSUMMER_.flby4__AT0| |call__PRODUCER_CONSUMMER_.o1__AT0| |call__PRODUCER_CONSUMMER_.flby3__AT0| |call__PRODUCER_CONSUMMER_.a__AT0| |call__PRODUCER_CONSUMMER_.flby2__AT0| |call__PRODUCER_CONSUMMER_.b__AT0| |call__PRODUCER_CONSUMMER_.flby__AT0| |call__PRODUCER_CONSUMMER_.i__AT0| |call__PRODUCER_CONSUMMER_.xite6__AT0| |call__PRODUCER_CONSUMMER_.xite4__AT0| |call__PRODUCER_CONSUMMER_.xite5__AT0| |call__PRODUCER_CONSUMMER_.xite7__AT0| |call__PRODUCER_CONSUMMER_.xite3__AT0| |env__AT0| |o2__AT0| |o1__AT0| |a__AT0| |b__AT0| |i__AT0| |flby__AT0| |_OK___AT0| |param_a_init__AT0| |call__PRODUCER_CONSUMMER_.xite9__AT0| |call__PRODUCER_CONSUMMER_.xite8__AT0| |call__PRODUCER_CONSUMMER_.xite2__AT0| |call__PRODUCER_CONSUMMER_.xite__AT0| |call__PRODUCER_CONSUMMER_.xite11__AT0| |call__PRODUCER_CONSUMMER_.xite10__AT0| |call__PRODUCER_CONSUMMER_.garde1__AT0| |call__PRODUCER_CONSUMMER_.garde2__AT0| |call__PRODUCER_CONSUMMER_.garde3__AT0|))))
(assert (forall ((|call__PRODUCER_CONSUMMER_.xite2__AT0| Int) (|param_etat1__AT0| Bool) (|call__PRODUCER_CONSUMMER_.garde1__AT0| Bool) (|call__PRODUCER_CONSUMMER_.garde2__AT0| Bool) (|call__PRODUCER_CONSUMMER_.garde3__AT0| Bool) (|param_a_init__AT1| Int) (|call__PRODUCER_CONSUMMER_.xite8__AT0| Int) (|call__PRODUCER_CONSUMMER_.xite9__AT0| Int) (|param_etat2__AT0| Bool) (|call__PRODUCER_CONSUMMER_.flby__AT0| Int) (|call__PRODUCER_CONSUMMER_.a__AT0| Int) (|call__PRODUCER_CONSUMMER_.flby2__AT0| Int) (|param_a_init__AT0| Int) (|call__PRODUCER_CONSUMMER_.flby3__AT0| Int) (|call__PRODUCER_CONSUMMER_.flby4__AT0| Int) (|call__PRODUCER_CONSUMMER_.flby5__AT0| Int) (|call_excludes3.excludes__AT0| Bool) (|call_Sofar.flby__AT0| Bool) (|call_FirstB.flby__AT0| Bool) (|call_First.flby__AT0| Int) (|_OK___AT0| Bool) (|env__AT0| Bool) (|i__AT0| Int) (|call__PRODUCER_CONSUMMER_.i__AT0| Int) (|b__AT0| Int) (|call__PRODUCER_CONSUMMER_.b__AT0| Int) (|a__AT0| Int) (|o1__AT0| Int) (|call__PRODUCER_CONSUMMER_.o1__AT0| Int) (|o2__AT0| Int) (|call__PRODUCER_CONSUMMER_.o2__AT0| Int) (|call_Sofar.Sofar__AT0| Bool) (|call_FirstB.First__AT0| Bool) (|call_First.First__AT0| Int) (|call__PRODUCER_CONSUMMER_.xite7__AT0| Int) (|call__PRODUCER_CONSUMMER_.xite6__AT0| Int) (|call__PRODUCER_CONSUMMER_.xite3__AT0| Int) (|call__PRODUCER_CONSUMMER_.xite5__AT0| Int) (|call__PRODUCER_CONSUMMER_.xite4__AT0| Int) (|_OK___AT1| Bool) (|env__AT1| Bool) (|flby__AT1| Bool) (|i__AT1| Int) (|call__PRODUCER_CONSUMMER_.i__AT1| Int) (|b__AT1| Int) (|call__PRODUCER_CONSUMMER_.b__AT1| Int) (|a__AT1| Int) (|call__PRODUCER_CONSUMMER_.a__AT1| Int) (|call__PRODUCER_CONSUMMER_.o1__AT1| Int) (|o1__AT1| Int) (|o2__AT1| Int) (|call__PRODUCER_CONSUMMER_.o2__AT1| Int) (|call_Sofar.Sofar__AT1| Bool) (|call_FirstB.First__AT1| Bool) (|call_First.First__AT1| Int) (|call__PRODUCER_CONSUMMER_.xite6__AT1| Int) (|call__PRODUCER_CONSUMMER_.xite7__AT1| Int) (|param_etat1__AT1| Bool) (|call__PRODUCER_CONSUMMER_.xite3__AT1| Int) (|call__PRODUCER_CONSUMMER_.xite5__AT1| Int) (|param_etat2__AT1| Bool) (|call__PRODUCER_CONSUMMER_.xite4__AT1| Int) (|call__PRODUCER_CONSUMMER_.flby__AT1| Int) (|call__PRODUCER_CONSUMMER_.flby2__AT1| Int) (|call__PRODUCER_CONSUMMER_.flby3__AT1| Int) (|call__PRODUCER_CONSUMMER_.flby4__AT1| Int) (|call__PRODUCER_CONSUMMER_.flby5__AT1| Int) (|param_etat3__AT1| Bool) (|call_excludes3.excludes__AT1| Bool) (|call_Sofar.flby__AT1| Bool) (|call_FirstB.flby__AT1| Bool) (|call_First.flby__AT1| Int) (|call__PRODUCER_CONSUMMER_.xite11__AT1| Int) (|call__PRODUCER_CONSUMMER_.xite9__AT1| Int) (|call__PRODUCER_CONSUMMER_.xite2__AT1| Int) (|call__PRODUCER_CONSUMMER_.garde3__AT1| Bool) (|call__PRODUCER_CONSUMMER_.garde2__AT1| Bool) (|call__PRODUCER_CONSUMMER_.garde1__AT1| Bool) (|call__PRODUCER_CONSUMMER_.xite10__AT1| Int) (|call__PRODUCER_CONSUMMER_.xite8__AT1| Int) (|call__PRODUCER_CONSUMMER_.xite__AT1| Int) (|param_etat3__AT0| Bool) (|call__PRODUCER_CONSUMMER_.xite10__AT0| Int) (|call__PRODUCER_CONSUMMER_.xite11__AT0| Int) (|flby__AT0| Bool) (|call__PRODUCER_CONSUMMER_.xite__AT0| Int)) (=> (and (state |call_First.flby__AT0| |call_First.First__AT0| |call_FirstB.flby__AT0| |call_FirstB.First__AT0| |call_Sofar.flby__AT0| |call_Sofar.Sofar__AT0| |param_etat2__AT0| |param_etat1__AT0| |param_etat3__AT0| |call_excludes3.excludes__AT0| |call__PRODUCER_CONSUMMER_.flby5__AT0| |call__PRODUCER_CONSUMMER_.o2__AT0| |call__PRODUCER_CONSUMMER_.flby4__AT0| |call__PRODUCER_CONSUMMER_.o1__AT0| |call__PRODUCER_CONSUMMER_.flby3__AT0| |call__PRODUCER_CONSUMMER_.a__AT0| |call__PRODUCER_CONSUMMER_.flby2__AT0| |call__PRODUCER_CONSUMMER_.b__AT0| |call__PRODUCER_CONSUMMER_.flby__AT0| |call__PRODUCER_CONSUMMER_.i__AT0| |call__PRODUCER_CONSUMMER_.xite6__AT0| |call__PRODUCER_CONSUMMER_.xite4__AT0| |call__PRODUCER_CONSUMMER_.xite5__AT0| |call__PRODUCER_CONSUMMER_.xite7__AT0| |call__PRODUCER_CONSUMMER_.xite3__AT0| |env__AT0| |o2__AT0| |o1__AT0| |a__AT0| |b__AT0| |i__AT0| |flby__AT0| |_OK___AT0| |param_a_init__AT0| |call__PRODUCER_CONSUMMER_.xite9__AT0| |call__PRODUCER_CONSUMMER_.xite8__AT0| |call__PRODUCER_CONSUMMER_.xite2__AT0| |call__PRODUCER_CONSUMMER_.xite__AT0| |call__PRODUCER_CONSUMMER_.xite11__AT0| |call__PRODUCER_CONSUMMER_.xite10__AT0| |call__PRODUCER_CONSUMMER_.garde1__AT0| |call__PRODUCER_CONSUMMER_.garde2__AT0| |call__PRODUCER_CONSUMMER_.garde3__AT0|) (let ((.def_326 (not env__AT1)))
(let ((.def_327 (or flby__AT1 .def_326)))
(let ((.def_329 (= .def_327 _OK___AT1)))
(let ((.def_325 (= call__PRODUCER_CONSUMMER_.i__AT1 i__AT1)))
(let ((.def_330 (and .def_325 .def_329)))
(let ((.def_323 (= call__PRODUCER_CONSUMMER_.b__AT1 b__AT1)))
(let ((.def_331 (and .def_323 .def_330)))
(let ((.def_321 (= call__PRODUCER_CONSUMMER_.a__AT1 a__AT1)))
(let ((.def_332 (and .def_321 .def_331)))
(let ((.def_319 (= o1__AT1 call__PRODUCER_CONSUMMER_.o1__AT1)))
(let ((.def_333 (and .def_319 .def_332)))
(let ((.def_318 (= call__PRODUCER_CONSUMMER_.o2__AT1 o2__AT1)))
(let ((.def_334 (and .def_318 .def_333)))
(let ((.def_313 (and call_FirstB.First__AT1 call_Sofar.Sofar__AT1)))
(let ((.def_311 (<= call_First.First__AT1 0)))
(let ((.def_312 (not .def_311)))
(let ((.def_314 (and .def_312 .def_313)))
(let ((.def_316 (= .def_314 env__AT1)))
(let ((.def_335 (and .def_316 .def_334)))
(let ((.def_308 (= call__PRODUCER_CONSUMMER_.xite7__AT1 call__PRODUCER_CONSUMMER_.xite6__AT1)))
(let ((.def_309 (or param_etat1__AT1 .def_308)))
(let ((.def_306 (= call__PRODUCER_CONSUMMER_.xite3__AT1 call__PRODUCER_CONSUMMER_.xite7__AT1)))
(let ((.def_151 (not param_etat1__AT1)))
(let ((.def_307 (or .def_151 .def_306)))
(let ((.def_310 (and .def_307 .def_309)))
(let ((.def_336 (and .def_310 .def_335)))
(let ((.def_303 (= call__PRODUCER_CONSUMMER_.xite5__AT1 call__PRODUCER_CONSUMMER_.xite6__AT1)))
(let ((.def_304 (or param_etat2__AT1 .def_303)))
(let ((.def_301 (= call__PRODUCER_CONSUMMER_.xite4__AT1 call__PRODUCER_CONSUMMER_.xite6__AT1)))
(let ((.def_144 (not param_etat2__AT1)))
(let ((.def_302 (or .def_144 .def_301)))
(let ((.def_305 (and .def_302 .def_304)))
(let ((.def_337 (and .def_305 .def_336)))
(let ((.def_299 (= call__PRODUCER_CONSUMMER_.flby__AT1 call__PRODUCER_CONSUMMER_.i__AT1)))
(let ((.def_338 (and .def_299 .def_337)))
(let ((.def_297 (= call__PRODUCER_CONSUMMER_.flby2__AT1 call__PRODUCER_CONSUMMER_.b__AT1)))
(let ((.def_339 (and .def_297 .def_338)))
(let ((.def_295 (= call__PRODUCER_CONSUMMER_.flby3__AT1 call__PRODUCER_CONSUMMER_.a__AT1)))
(let ((.def_340 (and .def_295 .def_339)))
(let ((.def_293 (= call__PRODUCER_CONSUMMER_.flby4__AT1 call__PRODUCER_CONSUMMER_.o1__AT1)))
(let ((.def_341 (and .def_293 .def_340)))
(let ((.def_291 (= call__PRODUCER_CONSUMMER_.flby5__AT1 call__PRODUCER_CONSUMMER_.o2__AT1)))
(let ((.def_342 (and .def_291 .def_341)))
(let ((.def_286 (and param_etat2__AT1 param_etat3__AT1)))
(let ((.def_284 (and param_etat1__AT1 param_etat3__AT1)))
(let ((.def_283 (and param_etat2__AT1 param_etat1__AT1)))
(let ((.def_285 (or .def_283 .def_284)))
(let ((.def_287 (or .def_285 .def_286)))
(let ((.def_288 (not .def_287)))
(let ((.def_289 (= call_excludes3.excludes__AT1 .def_288)))
(let ((.def_343 (and .def_289 .def_342)))
(let ((.def_282 (= call_Sofar.flby__AT1 call_Sofar.Sofar__AT1)))
(let ((.def_344 (and .def_282 .def_343)))
(let ((.def_280 (= call_FirstB.flby__AT1 call_FirstB.First__AT1)))
(let ((.def_345 (and .def_280 .def_344)))
(let ((.def_278 (= call_First.flby__AT1 call_First.First__AT1)))
(let ((.def_346 (and .def_278 .def_345)))
(let ((.def_78 (not env__AT0)))
(let ((.def_80 (or .def_78 flby__AT0)))
(let ((.def_82 (= .def_80 _OK___AT0)))
(let ((.def_77 (= call__PRODUCER_CONSUMMER_.i__AT0 i__AT0)))
(let ((.def_83 (and .def_77 .def_82)))
(let ((.def_75 (= call__PRODUCER_CONSUMMER_.b__AT0 b__AT0)))
(let ((.def_84 (and .def_75 .def_83)))
(let ((.def_73 (= call__PRODUCER_CONSUMMER_.a__AT0 a__AT0)))
(let ((.def_85 (and .def_73 .def_84)))
(let ((.def_71 (= call__PRODUCER_CONSUMMER_.o1__AT0 o1__AT0)))
(let ((.def_86 (and .def_71 .def_85)))
(let ((.def_69 (= call__PRODUCER_CONSUMMER_.o2__AT0 o2__AT0)))
(let ((.def_87 (and .def_69 .def_86)))
(let ((.def_64 (and call_FirstB.First__AT0 call_Sofar.Sofar__AT0)))
(let ((.def_62 (<= call_First.First__AT0 0)))
(let ((.def_63 (not .def_62)))
(let ((.def_65 (and .def_63 .def_64)))
(let ((.def_67 (= .def_65 env__AT0)))
(let ((.def_88 (and .def_67 .def_87)))
(let ((.def_58 (= call__PRODUCER_CONSUMMER_.xite6__AT0 call__PRODUCER_CONSUMMER_.xite7__AT0)))
(let ((.def_59 (or param_etat1__AT0 .def_58)))
(let ((.def_56 (not param_etat1__AT0)))
(let ((.def_55 (= call__PRODUCER_CONSUMMER_.xite7__AT0 call__PRODUCER_CONSUMMER_.xite3__AT0)))
(let ((.def_57 (or .def_55 .def_56)))
(let ((.def_60 (and .def_57 .def_59)))
(let ((.def_89 (and .def_60 .def_88)))
(let ((.def_50 (= call__PRODUCER_CONSUMMER_.xite6__AT0 call__PRODUCER_CONSUMMER_.xite5__AT0)))
(let ((.def_51 (or param_etat2__AT0 .def_50)))
(let ((.def_47 (not param_etat2__AT0)))
(let ((.def_46 (= call__PRODUCER_CONSUMMER_.xite6__AT0 call__PRODUCER_CONSUMMER_.xite4__AT0)))
(let ((.def_48 (or .def_46 .def_47)))
(let ((.def_52 (and .def_48 .def_51)))
(let ((.def_90 (and .def_52 .def_89)))
(let ((.def_43 (= call__PRODUCER_CONSUMMER_.flby__AT0 call__PRODUCER_CONSUMMER_.i__AT0)))
(let ((.def_91 (and .def_43 .def_90)))
(let ((.def_40 (= call__PRODUCER_CONSUMMER_.flby2__AT0 call__PRODUCER_CONSUMMER_.b__AT0)))
(let ((.def_92 (and .def_40 .def_91)))
(let ((.def_37 (= call__PRODUCER_CONSUMMER_.flby3__AT0 call__PRODUCER_CONSUMMER_.a__AT0)))
(let ((.def_93 (and .def_37 .def_92)))
(let ((.def_34 (= call__PRODUCER_CONSUMMER_.flby4__AT0 call__PRODUCER_CONSUMMER_.o1__AT0)))
(let ((.def_94 (and .def_34 .def_93)))
(let ((.def_31 (= call__PRODUCER_CONSUMMER_.flby5__AT0 call__PRODUCER_CONSUMMER_.o2__AT0)))
(let ((.def_95 (and .def_31 .def_94)))
(let ((.def_24 (and param_etat2__AT0 param_etat3__AT0)))
(let ((.def_22 (and param_etat1__AT0 param_etat3__AT0)))
(let ((.def_20 (and param_etat2__AT0 param_etat1__AT0)))
(let ((.def_23 (or .def_20 .def_22)))
(let ((.def_25 (or .def_23 .def_24)))
(let ((.def_26 (not .def_25)))
(let ((.def_28 (= .def_26 call_excludes3.excludes__AT0)))
(let ((.def_96 (and .def_28 .def_95)))
(let ((.def_17 (= call_Sofar.flby__AT0 call_Sofar.Sofar__AT0)))
(let ((.def_97 (and .def_17 .def_96)))
(let ((.def_14 (= call_FirstB.flby__AT0 call_FirstB.First__AT0)))
(let ((.def_98 (and .def_14 .def_97)))
(let ((.def_11 (= call_First.flby__AT0 call_First.First__AT0)))
(let ((.def_99 (and .def_11 .def_98)))
(let ((.def_347 (and .def_99 .def_346)))
(let ((.def_275 (= call_First.First__AT0 call_First.flby__AT1)))
(let ((.def_272 (= call_FirstB.First__AT0 call_FirstB.flby__AT1)))
(let ((.def_262 (or param_etat2__AT1 param_etat1__AT1)))
(let ((.def_263 (or param_etat3__AT1 .def_262)))
(let ((.def_264 (not .def_263)))
(let ((.def_266 (or .def_264 call_excludes3.excludes__AT1)))
(let ((.def_267 (and call_Sofar.Sofar__AT0 .def_266)))
(let ((.def_269 (= .def_267 call_Sofar.flby__AT1)))
(let ((.def_260 (= call__PRODUCER_CONSUMMER_.xite11__AT1 call__PRODUCER_CONSUMMER_.flby5__AT1)))
(let ((.def_257 (= call__PRODUCER_CONSUMMER_.xite9__AT1 call__PRODUCER_CONSUMMER_.flby4__AT1)))
(let ((.def_254 (= call__PRODUCER_CONSUMMER_.a__AT0 call__PRODUCER_CONSUMMER_.flby3__AT1)))
(let ((.def_251 (= call__PRODUCER_CONSUMMER_.xite7__AT1 call__PRODUCER_CONSUMMER_.flby2__AT1)))
(let ((.def_247 (= call__PRODUCER_CONSUMMER_.xite2__AT1 call__PRODUCER_CONSUMMER_.flby__AT1)))
(let ((.def_241 (<= 1 call__PRODUCER_CONSUMMER_.b__AT0)))
(let ((.def_244 (= call__PRODUCER_CONSUMMER_.garde3__AT1 .def_241)))
(let ((.def_242 (= call__PRODUCER_CONSUMMER_.garde2__AT1 .def_241)))
(let ((.def_238 (<= 1 call__PRODUCER_CONSUMMER_.i__AT0)))
(let ((.def_239 (= call__PRODUCER_CONSUMMER_.garde1__AT1 .def_238)))
(let ((.def_234 (= call__PRODUCER_CONSUMMER_.o2__AT0 call__PRODUCER_CONSUMMER_.xite10__AT1)))
(let ((.def_235 (or call__PRODUCER_CONSUMMER_.garde3__AT1 .def_234)))
(let ((.def_230 (* (- 1) call__PRODUCER_CONSUMMER_.xite10__AT1)))
(let ((.def_231 (+ call__PRODUCER_CONSUMMER_.o2__AT0 .def_230)))
(let ((.def_232 (= .def_231 (- 1))))
(let ((.def_198 (not call__PRODUCER_CONSUMMER_.garde3__AT1)))
(let ((.def_233 (or .def_198 .def_232)))
(let ((.def_236 (and .def_233 .def_235)))
(let ((.def_226 (= call__PRODUCER_CONSUMMER_.o1__AT0 call__PRODUCER_CONSUMMER_.xite8__AT1)))
(let ((.def_227 (or call__PRODUCER_CONSUMMER_.garde2__AT1 .def_226)))
(let ((.def_222 (* (- 1) call__PRODUCER_CONSUMMER_.xite8__AT1)))
(let ((.def_223 (+ call__PRODUCER_CONSUMMER_.o1__AT0 .def_222)))
(let ((.def_224 (= .def_223 (- 1))))
(let ((.def_207 (not call__PRODUCER_CONSUMMER_.garde2__AT1)))
(let ((.def_225 (or .def_207 .def_224)))
(let ((.def_228 (and .def_225 .def_227)))
(let ((.def_214 (= call__PRODUCER_CONSUMMER_.b__AT0 call__PRODUCER_CONSUMMER_.xite3__AT1)))
(let ((.def_215 (or call__PRODUCER_CONSUMMER_.garde1__AT1 .def_214)))
(let ((.def_210 (* (- 1) call__PRODUCER_CONSUMMER_.xite3__AT1)))
(let ((.def_211 (+ call__PRODUCER_CONSUMMER_.b__AT0 .def_210)))
(let ((.def_212 (= .def_211 (- 1))))
(let ((.def_185 (not call__PRODUCER_CONSUMMER_.garde1__AT1)))
(let ((.def_213 (or .def_185 .def_212)))
(let ((.def_216 (and .def_213 .def_215)))
(let ((.def_204 (* (- 1) call__PRODUCER_CONSUMMER_.xite4__AT1)))
(let ((.def_205 (+ call__PRODUCER_CONSUMMER_.b__AT0 .def_204)))
(let ((.def_206 (= .def_205 1)))
(let ((.def_208 (or .def_206 .def_207)))
(let ((.def_217 (and .def_208 .def_216)))
(let ((.def_201 (= call__PRODUCER_CONSUMMER_.b__AT0 call__PRODUCER_CONSUMMER_.xite4__AT1)))
(let ((.def_203 (or .def_201 call__PRODUCER_CONSUMMER_.garde2__AT1)))
(let ((.def_218 (and .def_203 .def_217)))
(let ((.def_195 (* (- 1) call__PRODUCER_CONSUMMER_.xite5__AT1)))
(let ((.def_196 (+ call__PRODUCER_CONSUMMER_.b__AT0 .def_195)))
(let ((.def_197 (= .def_196 1)))
(let ((.def_199 (or .def_197 .def_198)))
(let ((.def_219 (and .def_199 .def_218)))
(let ((.def_192 (= call__PRODUCER_CONSUMMER_.b__AT0 call__PRODUCER_CONSUMMER_.xite5__AT1)))
(let ((.def_194 (or .def_192 call__PRODUCER_CONSUMMER_.garde3__AT1)))
(let ((.def_220 (and .def_194 .def_219)))
(let ((.def_187 (= call__PRODUCER_CONSUMMER_.i__AT0 call__PRODUCER_CONSUMMER_.xite__AT1)))
(let ((.def_188 (or call__PRODUCER_CONSUMMER_.garde1__AT1 .def_187)))
(let ((.def_181 (* (- 1) call__PRODUCER_CONSUMMER_.xite__AT1)))
(let ((.def_182 (+ call__PRODUCER_CONSUMMER_.i__AT0 .def_181)))
(let ((.def_183 (= .def_182 1)))
(let ((.def_186 (or .def_183 .def_185)))
(let ((.def_189 (and .def_186 .def_188)))
(let ((.def_173 (and param_etat1__AT0 param_etat2__AT1)))
(let ((.def_174 (not .def_173)))
(let ((.def_171 (= o1__AT0 o1__AT1)))
(let ((.def_168 (* (- 1) o1__AT1)))
(let ((.def_169 (+ o1__AT0 .def_168)))
(let ((.def_170 (= .def_169 (- 1))))
(let ((.def_172 (or .def_170 .def_171)))
(let ((.def_175 (or .def_172 .def_174)))
(let ((.def_177 (= .def_175 flby__AT1)))
(let ((.def_162 (= call__PRODUCER_CONSUMMER_.o2__AT0 call__PRODUCER_CONSUMMER_.xite11__AT1)))
(let ((.def_163 (or param_etat3__AT1 .def_162)))
(let ((.def_160 (not param_etat3__AT1)))
(let ((.def_158 (= call__PRODUCER_CONSUMMER_.xite10__AT1 call__PRODUCER_CONSUMMER_.xite11__AT1)))
(let ((.def_161 (or .def_158 .def_160)))
(let ((.def_164 (and .def_161 .def_163)))
(let ((.def_178 (and .def_164 .def_177)))
(let ((.def_153 (= call__PRODUCER_CONSUMMER_.i__AT0 call__PRODUCER_CONSUMMER_.xite2__AT1)))
(let ((.def_154 (or param_etat1__AT1 .def_153)))
(let ((.def_149 (= call__PRODUCER_CONSUMMER_.xite__AT1 call__PRODUCER_CONSUMMER_.xite2__AT1)))
(let ((.def_152 (or .def_149 .def_151)))
(let ((.def_155 (and .def_152 .def_154)))
(let ((.def_179 (and .def_155 .def_178)))
(let ((.def_143 (= call__PRODUCER_CONSUMMER_.xite9__AT1 call__PRODUCER_CONSUMMER_.xite8__AT1)))
(let ((.def_145 (or .def_143 .def_144)))
(let ((.def_139 (= call__PRODUCER_CONSUMMER_.o1__AT0 call__PRODUCER_CONSUMMER_.xite9__AT1)))
(let ((.def_141 (or .def_139 param_etat2__AT1)))
(let ((.def_146 (and .def_141 .def_145)))
(let ((.def_180 (and .def_146 .def_179)))
(let ((.def_190 (and .def_180 .def_189)))
(let ((.def_221 (and .def_190 .def_220)))
(let ((.def_229 (and .def_221 .def_228)))
(let ((.def_237 (and .def_229 .def_236)))
(let ((.def_240 (and .def_237 .def_239)))
(let ((.def_243 (and .def_240 .def_242)))
(let ((.def_245 (and .def_243 .def_244)))
(let ((.def_248 (and .def_245 .def_247)))
(let ((.def_252 (and .def_248 .def_251)))
(let ((.def_255 (and .def_252 .def_254)))
(let ((.def_258 (and .def_255 .def_257)))
(let ((.def_261 (and .def_258 .def_260)))
(let ((.def_270 (and .def_261 .def_269)))
(let ((.def_273 (and .def_270 .def_272)))
(let ((.def_276 (and .def_273 .def_275)))
(let ((.def_348 (and .def_276 .def_347)))
.def_348))))))))))))))))))))))))))))))))))))))))))))))))))))))))))))))))))))))))))))))))))))))))))))))))))))))))))))))))))))))))))))))))))))))))))))))))))))))))))))))))))))))))))))))))))))))))))))))))))))))))))))))))))))))))))))))))) (state |call_First.flby__AT1| |call_First.First__AT1| |call_FirstB.flby__AT1| |call_FirstB.First__AT1| |call_Sofar.flby__AT1| |call_Sofar.Sofar__AT1| |param_etat2__AT1| |param_etat1__AT1| |param_etat3__AT1| |call_excludes3.excludes__AT1| |call__PRODUCER_CONSUMMER_.flby5__AT1| |call__PRODUCER_CONSUMMER_.o2__AT1| |call__PRODUCER_CONSUMMER_.flby4__AT1| |call__PRODUCER_CONSUMMER_.o1__AT1| |call__PRODUCER_CONSUMMER_.flby3__AT1| |call__PRODUCER_CONSUMMER_.a__AT1| |call__PRODUCER_CONSUMMER_.flby2__AT1| |call__PRODUCER_CONSUMMER_.b__AT1| |call__PRODUCER_CONSUMMER_.flby__AT1| |call__PRODUCER_CONSUMMER_.i__AT1| |call__PRODUCER_CONSUMMER_.xite6__AT1| |call__PRODUCER_CONSUMMER_.xite4__AT1| |call__PRODUCER_CONSUMMER_.xite5__AT1| |call__PRODUCER_CONSUMMER_.xite7__AT1| |call__PRODUCER_CONSUMMER_.xite3__AT1| |env__AT1| |o2__AT1| |o1__AT1| |a__AT1| |b__AT1| |i__AT1| |flby__AT1| |_OK___AT1| |param_a_init__AT1| |call__PRODUCER_CONSUMMER_.xite9__AT1| |call__PRODUCER_CONSUMMER_.xite8__AT1| |call__PRODUCER_CONSUMMER_.xite2__AT1| |call__PRODUCER_CONSUMMER_.xite__AT1| |call__PRODUCER_CONSUMMER_.xite11__AT1| |call__PRODUCER_CONSUMMER_.xite10__AT1| |call__PRODUCER_CONSUMMER_.garde1__AT1| |call__PRODUCER_CONSUMMER_.garde2__AT1| |call__PRODUCER_CONSUMMER_.garde3__AT1|))))
(assert (forall ((|call__PRODUCER_CONSUMMER_.xite2__AT0| Int) (|param_etat1__AT0| Bool) (|call__PRODUCER_CONSUMMER_.garde1__AT0| Bool) (|call__PRODUCER_CONSUMMER_.garde2__AT0| Bool) (|call__PRODUCER_CONSUMMER_.garde3__AT0| Bool) (|param_a_init__AT1| Int) (|call__PRODUCER_CONSUMMER_.xite8__AT0| Int) (|call__PRODUCER_CONSUMMER_.xite9__AT0| Int) (|param_etat2__AT0| Bool) (|call__PRODUCER_CONSUMMER_.flby__AT0| Int) (|call__PRODUCER_CONSUMMER_.a__AT0| Int) (|call__PRODUCER_CONSUMMER_.flby2__AT0| Int) (|param_a_init__AT0| Int) (|call__PRODUCER_CONSUMMER_.flby3__AT0| Int) (|call__PRODUCER_CONSUMMER_.flby4__AT0| Int) (|call__PRODUCER_CONSUMMER_.flby5__AT0| Int) (|call_excludes3.excludes__AT0| Bool) (|call_Sofar.flby__AT0| Bool) (|call_FirstB.flby__AT0| Bool) (|call_First.flby__AT0| Int) (|_OK___AT0| Bool) (|env__AT0| Bool) (|i__AT0| Int) (|call__PRODUCER_CONSUMMER_.i__AT0| Int) (|b__AT0| Int) (|call__PRODUCER_CONSUMMER_.b__AT0| Int) (|a__AT0| Int) (|o1__AT0| Int) (|call__PRODUCER_CONSUMMER_.o1__AT0| Int) (|o2__AT0| Int) (|call__PRODUCER_CONSUMMER_.o2__AT0| Int) (|call_Sofar.Sofar__AT0| Bool) (|call_FirstB.First__AT0| Bool) (|call_First.First__AT0| Int) (|call__PRODUCER_CONSUMMER_.xite7__AT0| Int) (|call__PRODUCER_CONSUMMER_.xite6__AT0| Int) (|call__PRODUCER_CONSUMMER_.xite3__AT0| Int) (|call__PRODUCER_CONSUMMER_.xite5__AT0| Int) (|call__PRODUCER_CONSUMMER_.xite4__AT0| Int) (|_OK___AT1| Bool) (|env__AT1| Bool) (|flby__AT1| Bool) (|i__AT1| Int) (|call__PRODUCER_CONSUMMER_.i__AT1| Int) (|b__AT1| Int) (|call__PRODUCER_CONSUMMER_.b__AT1| Int) (|a__AT1| Int) (|call__PRODUCER_CONSUMMER_.a__AT1| Int) (|call__PRODUCER_CONSUMMER_.o1__AT1| Int) (|o1__AT1| Int) (|o2__AT1| Int) (|call__PRODUCER_CONSUMMER_.o2__AT1| Int) (|call_Sofar.Sofar__AT1| Bool) (|call_FirstB.First__AT1| Bool) (|call_First.First__AT1| Int) (|call__PRODUCER_CONSUMMER_.xite6__AT1| Int) (|call__PRODUCER_CONSUMMER_.xite7__AT1| Int) (|param_etat1__AT1| Bool) (|call__PRODUCER_CONSUMMER_.xite3__AT1| Int) (|call__PRODUCER_CONSUMMER_.xite5__AT1| Int) (|param_etat2__AT1| Bool) (|call__PRODUCER_CONSUMMER_.xite4__AT1| Int) (|call__PRODUCER_CONSUMMER_.flby__AT1| Int) (|call__PRODUCER_CONSUMMER_.flby2__AT1| Int) (|call__PRODUCER_CONSUMMER_.flby3__AT1| Int) (|call__PRODUCER_CONSUMMER_.flby4__AT1| Int) (|call__PRODUCER_CONSUMMER_.flby5__AT1| Int) (|param_etat3__AT1| Bool) (|call_excludes3.excludes__AT1| Bool) (|call_Sofar.flby__AT1| Bool) (|call_FirstB.flby__AT1| Bool) (|call_First.flby__AT1| Int) (|call__PRODUCER_CONSUMMER_.xite11__AT1| Int) (|call__PRODUCER_CONSUMMER_.xite9__AT1| Int) (|call__PRODUCER_CONSUMMER_.xite2__AT1| Int) (|call__PRODUCER_CONSUMMER_.garde3__AT1| Bool) (|call__PRODUCER_CONSUMMER_.garde2__AT1| Bool) (|call__PRODUCER_CONSUMMER_.garde1__AT1| Bool) (|call__PRODUCER_CONSUMMER_.xite10__AT1| Int) (|call__PRODUCER_CONSUMMER_.xite8__AT1| Int) (|call__PRODUCER_CONSUMMER_.xite__AT1| Int) (|param_etat3__AT0| Bool) (|call__PRODUCER_CONSUMMER_.xite10__AT0| Int) (|call__PRODUCER_CONSUMMER_.xite11__AT0| Int) (|flby__AT0| Bool) (|call__PRODUCER_CONSUMMER_.xite__AT0| Int)) (=> (state |call_First.flby__AT0| |call_First.First__AT0| |call_FirstB.flby__AT0| |call_FirstB.First__AT0| |call_Sofar.flby__AT0| |call_Sofar.Sofar__AT0| |param_etat2__AT0| |param_etat1__AT0| |param_etat3__AT0| |call_excludes3.excludes__AT0| |call__PRODUCER_CONSUMMER_.flby5__AT0| |call__PRODUCER_CONSUMMER_.o2__AT0| |call__PRODUCER_CONSUMMER_.flby4__AT0| |call__PRODUCER_CONSUMMER_.o1__AT0| |call__PRODUCER_CONSUMMER_.flby3__AT0| |call__PRODUCER_CONSUMMER_.a__AT0| |call__PRODUCER_CONSUMMER_.flby2__AT0| |call__PRODUCER_CONSUMMER_.b__AT0| |call__PRODUCER_CONSUMMER_.flby__AT0| |call__PRODUCER_CONSUMMER_.i__AT0| |call__PRODUCER_CONSUMMER_.xite6__AT0| |call__PRODUCER_CONSUMMER_.xite4__AT0| |call__PRODUCER_CONSUMMER_.xite5__AT0| |call__PRODUCER_CONSUMMER_.xite7__AT0| |call__PRODUCER_CONSUMMER_.xite3__AT0| |env__AT0| |o2__AT0| |o1__AT0| |a__AT0| |b__AT0| |i__AT0| |flby__AT0| |_OK___AT0| |param_a_init__AT0| |call__PRODUCER_CONSUMMER_.xite9__AT0| |call__PRODUCER_CONSUMMER_.xite8__AT0| |call__PRODUCER_CONSUMMER_.xite2__AT0| |call__PRODUCER_CONSUMMER_.xite__AT0| |call__PRODUCER_CONSUMMER_.xite11__AT0| |call__PRODUCER_CONSUMMER_.xite10__AT0| |call__PRODUCER_CONSUMMER_.garde1__AT0| |call__PRODUCER_CONSUMMER_.garde2__AT0| |call__PRODUCER_CONSUMMER_.garde3__AT0|) _OK___AT0)))
(check-sat)
